Welcome to the CBC MILP Solver 
Version: 2.10.7 
Build Date: Feb 14 2022 

command line - cbc inputs/new_tr/order/jump_3_45_down_left_input.lp sec 1800 solve solu solutions/new_tr/jump_3_45_down_left_input.lp (default strategy 1)
seconds was changed from 1e+100 to 1800
Continuous objective value is 46844.4 - 4.21 seconds
Cgl0002I 695 variables fixed
Cgl0003I 0 fixed, 1 tightened bounds, 687 strengthened rows, 20 substitutions
Cgl0003I 0 fixed, 0 tightened bounds, 27 strengthened rows, 0 substitutions
Cgl0003I 0 fixed, 0 tightened bounds, 2 strengthened rows, 0 substitutions
Cgl0004I processed model has 5083 rows, 1568 columns (1568 integer (1522 of which binary)) and 16958 elements
Cutoff increment increased from 1e-05 to 0.9999
Cbc0045I 1 integer variables out of 1568 objects (1568 integer) have cost of 1 - high priority
Cbc0045I branch on satisfied Y create fake objective Y random cost Y
Cbc0038I Initial state - 917 integers unsatisfied sum - 222.259
Cbc0038I Pass   1: (5.82 seconds) suminf.   73.15191 (516) obj. 62561.5 iterations 2602
Cbc0038I Pass   2: (5.97 seconds) suminf.   58.93070 (469) obj. 66593.3 iterations 606
Cbc0038I Pass   3: (6.05 seconds) suminf.   54.70280 (413) obj. 66935.8 iterations 303
Cbc0038I Pass   4: (6.10 seconds) suminf.   52.92929 (411) obj. 66608.1 iterations 140
Cbc0038I Pass   5: (6.13 seconds) suminf.   52.36659 (412) obj. 66418 iterations 128
Cbc0038I Pass   6: (6.20 seconds) suminf.   45.78389 (385) obj. 66457.2 iterations 246
Cbc0038I Pass   7: (6.28 seconds) suminf.   43.52771 (397) obj. 65679.3 iterations 241
Cbc0038I Pass   8: (6.29 seconds) suminf.   42.73802 (390) obj. 65391.8 iterations 53
Cbc0038I Pass   9: (6.36 seconds) suminf.   41.20189 (378) obj. 65262.3 iterations 233
Cbc0038I Pass  10: (6.39 seconds) suminf.   40.76557 (372) obj. 65158.7 iterations 81
Cbc0038I Pass  11: (6.49 seconds) suminf.   36.14929 (356) obj. 66368.5 iterations 417
Cbc0038I Pass  12: (6.52 seconds) suminf.   34.85502 (364) obj. 66310 iterations 119
Cbc0038I Pass  13: (6.53 seconds) suminf.   34.82763 (362) obj. 66310 iterations 2
Cbc0038I Pass  14: (6.62 seconds) suminf.   29.64235 (329) obj. 62588 iterations 366
Cbc0038I Pass  15: (6.67 seconds) suminf.   28.39024 (320) obj. 62366.4 iterations 195
Cbc0038I Pass  16: (6.69 seconds) suminf.   27.84945 (314) obj. 62363.2 iterations 69
Cbc0038I Pass  17: (6.75 seconds) suminf.   29.48750 (318) obj. 62366.8 iterations 212
Cbc0038I Pass  18: (6.78 seconds) suminf.   27.79023 (309) obj. 62363.7 iterations 105
Cbc0038I Pass  19: (6.79 seconds) suminf.   27.91804 (310) obj. 62363.7 iterations 15
Cbc0038I Pass  20: (6.86 seconds) suminf.   29.14643 (279) obj. 63903.7 iterations 296
Cbc0038I Pass  21: (6.91 seconds) suminf.   26.68507 (293) obj. 62405.1 iterations 185
Cbc0038I Pass  22: (6.97 seconds) suminf.   27.05153 (271) obj. 62739.8 iterations 261
Cbc0038I Pass  23: (7.01 seconds) suminf.   25.45645 (251) obj. 63006.7 iterations 210
Cbc0038I Pass  24: (7.06 seconds) suminf.   26.04081 (244) obj. 62826.3 iterations 200
Cbc0038I Pass  25: (7.08 seconds) suminf.   23.67485 (257) obj. 62827 iterations 77
Cbc0038I Pass  26: (7.10 seconds) suminf.   23.10255 (259) obj. 63217.1 iterations 65
Cbc0038I Pass  27: (7.16 seconds) suminf.   23.01360 (242) obj. 63572.4 iterations 220
Cbc0038I Pass  28: (7.18 seconds) suminf.   23.13915 (252) obj. 63212 iterations 115
Cbc0038I Pass  29: (7.23 seconds) suminf.   24.16539 (237) obj. 65115.6 iterations 195
Cbc0038I Pass  30: (7.26 seconds) suminf.   23.32233 (248) obj. 65485.1 iterations 119
Cbc0038I Pass  31: (7.29 seconds) suminf.   23.44151 (246) obj. 65496.4 iterations 103
Cbc0038I Pass  32: (7.33 seconds) suminf.   22.57052 (243) obj. 66259 iterations 159
Cbc0038I Pass  33: (7.36 seconds) suminf.   22.54597 (246) obj. 66249.1 iterations 134
Cbc0038I Pass  34: (7.43 seconds) suminf.   21.99914 (243) obj. 66247 iterations 349
Cbc0038I Pass  35: (7.46 seconds) suminf.   19.91527 (234) obj. 66246.7 iterations 115
Cbc0038I Pass  36: (7.46 seconds) suminf.   19.91527 (234) obj. 66246.7 iterations 0
Cbc0038I Pass  37: (7.48 seconds) suminf.   19.54189 (235) obj. 66246.2 iterations 73
Cbc0038I Pass  38: (7.50 seconds) suminf.   18.40484 (235) obj. 66247.2 iterations 83
Cbc0038I Pass  39: (7.52 seconds) suminf.   18.37726 (232) obj. 66247.4 iterations 62
Cbc0038I Pass  40: (7.56 seconds) suminf.   18.85222 (213) obj. 66246.7 iterations 161
Cbc0038I Pass  41: (7.57 seconds) suminf.   17.53225 (214) obj. 66245.1 iterations 29
Cbc0038I Pass  42: (7.59 seconds) suminf.   17.31675 (215) obj. 66243.8 iterations 91
Cbc0038I Pass  43: (7.60 seconds) suminf.   17.14256 (211) obj. 66243.7 iterations 9
Cbc0038I Pass  44: (7.63 seconds) suminf.   15.45113 (205) obj. 66233.2 iterations 109
Cbc0038I Pass  45: (7.64 seconds) suminf.   15.46900 (212) obj. 66241.6 iterations 37
Cbc0038I Pass  46: (7.66 seconds) suminf.   15.81529 (215) obj. 67051 iterations 89
Cbc0038I Pass  47: (7.68 seconds) suminf.   16.19523 (213) obj. 67112.4 iterations 30
Cbc0038I Pass  48: (7.73 seconds) suminf.   15.21009 (200) obj. 68891.8 iterations 221
Cbc0038I Pass  49: (7.74 seconds) suminf.   15.08553 (202) obj. 68860.7 iterations 51
Cbc0038I Pass  50: (7.76 seconds) suminf.   14.52523 (195) obj. 68991.2 iterations 70
Cbc0038I Pass  51: (7.77 seconds) suminf.   14.52523 (195) obj. 68991.2 iterations 18
Cbc0038I Pass  52: (7.81 seconds) suminf.   14.12606 (181) obj. 68937.5 iterations 168
Cbc0038I Pass  53: (7.82 seconds) suminf.   13.46560 (180) obj. 68900.9 iterations 23
Cbc0038I Pass  54: (7.86 seconds) suminf.   11.46904 (163) obj. 67616.1 iterations 210
Cbc0038I Pass  55: (7.89 seconds) suminf.   11.06498 (175) obj. 67949.4 iterations 130
Cbc0038I Pass  56: (7.91 seconds) suminf.    9.26229 (164) obj. 72464.2 iterations 85
Cbc0038I Pass  57: (7.92 seconds) suminf.    9.26182 (163) obj. 72464.1 iterations 18
Cbc0038I Pass  58: (7.97 seconds) suminf.   10.94996 (156) obj. 65139.7 iterations 257
Cbc0038I Pass  59: (7.99 seconds) suminf.    9.21626 (156) obj. 64728.6 iterations 60
Cbc0038I Pass  60: (7.99 seconds) suminf.    9.21626 (156) obj. 64728.6 iterations 3
Cbc0038I Pass  61: (8.06 seconds) suminf.   10.65283 (136) obj. 65536 iterations 344
Cbc0038I Pass  62: (8.07 seconds) suminf.   10.30732 (131) obj. 65536 iterations 54
Cbc0038I Pass  63: (8.09 seconds) suminf.    6.17289 (107) obj. 65536 iterations 103
Cbc0038I Pass  64: (8.10 seconds) suminf.    4.19149 (105) obj. 65536 iterations 49
Cbc0038I Pass  65: (8.13 seconds) suminf.    7.75031 (61) obj. 65536 iterations 160
Cbc0038I Pass  66: (8.15 seconds) suminf.    4.40864 (42) obj. 65536 iterations 72
Cbc0038I Pass  67: (8.16 seconds) suminf.    1.82089 (34) obj. 65536 iterations 24
Cbc0038I Pass  68: (8.16 seconds) suminf.    1.82089 (34) obj. 65536 iterations 19
Cbc0038I Pass  69: (8.18 seconds) suminf.    0.50560 (27) obj. 65536 iterations 100
Cbc0038I Pass  70: (8.19 seconds) suminf.    0.35916 (21) obj. 65536 iterations 19
Cbc0038I Pass  71: (8.24 seconds) suminf.    0.42557 (21) obj. 65536 iterations 254
Cbc0038I Pass  72: (8.25 seconds) suminf.    0.41363 (21) obj. 65536 iterations 20
Cbc0038I Pass  73: (8.26 seconds) suminf.    0.37135 (21) obj. 65536 iterations 58
Cbc0038I Pass  74: (8.47 seconds) suminf.   54.87795 (297) obj. 73586.5 iterations 1285
Cbc0038I Pass  75: (8.59 seconds) suminf.   37.59745 (251) obj. 73847.6 iterations 714
Cbc0038I Pass  76: (8.61 seconds) suminf.   36.94411 (247) obj. 73847.6 iterations 42
Cbc0038I Pass  77: (8.67 seconds) suminf.   32.23244 (248) obj. 73910.5 iterations 241
Cbc0038I Pass  78: (8.68 seconds) suminf.   32.23244 (248) obj. 73910.5 iterations 8
Cbc0038I Pass  79: (8.74 seconds) suminf.   28.59428 (220) obj. 74053 iterations 265
Cbc0038I Pass  80: (8.76 seconds) suminf.   27.53958 (227) obj. 74077 iterations 52
Cbc0038I Pass  81: (8.81 seconds) suminf.   23.04367 (204) obj. 74152.4 iterations 214
Cbc0038I Pass  82: (8.83 seconds) suminf.   21.00603 (200) obj. 74125.1 iterations 90
Cbc0038I Pass  83: (8.84 seconds) suminf.   21.00603 (200) obj. 74125.1 iterations 3
Cbc0038I Pass  84: (8.89 seconds) suminf.   20.89230 (184) obj. 74322.4 iterations 233
Cbc0038I Pass  85: (8.91 seconds) suminf.   17.78946 (189) obj. 74367.2 iterations 63
Cbc0038I Pass  86: (8.93 seconds) suminf.   17.97311 (189) obj. 74367.2 iterations 72
Cbc0038I Pass  87: (8.98 seconds) suminf.   15.79787 (179) obj. 74359.6 iterations 249
Cbc0038I Pass  88: (8.99 seconds) suminf.   15.42105 (184) obj. 74359.9 iterations 16
Cbc0038I Pass  89: (9.03 seconds) suminf.   16.27192 (160) obj. 68839.4 iterations 178
Cbc0038I Pass  90: (9.06 seconds) suminf.   15.07766 (166) obj. 68838.5 iterations 108
Cbc0038I Pass  91: (9.10 seconds) suminf.   11.89139 (155) obj. 72131 iterations 193
Cbc0038I Pass  92: (9.12 seconds) suminf.   10.99481 (161) obj. 72132.1 iterations 59
Cbc0038I Pass  93: (9.14 seconds) suminf.   11.98647 (148) obj. 70693.2 iterations 59
Cbc0038I Pass  94: (9.15 seconds) suminf.   11.57216 (151) obj. 69615.9 iterations 54
Cbc0038I Pass  95: (9.20 seconds) suminf.   10.21172 (146) obj. 68441.9 iterations 251
Cbc0038I Pass  96: (9.23 seconds) suminf.    9.21391 (154) obj. 68587.1 iterations 106
Cbc0038I Pass  97: (9.27 seconds) suminf.    8.58511 (102) obj. 65536 iterations 212
Cbc0038I Pass  98: (9.29 seconds) suminf.    1.90204 (74) obj. 65536 iterations 81
Cbc0038I Pass  99: (9.30 seconds) suminf.    1.90204 (74) obj. 65536 iterations 8
Cbc0038I Pass 100: (9.43 seconds) suminf.   49.06772 (284) obj. 71415.4 iterations 829
Cbc0038I No solution found this major pass
Cbc0038I Before mini branch and bound, 334 integers at bound fixed and 0 continuous
Cbc0038I Full problem 5083 rows 1568 columns, reduced to 3984 rows 1143 columns - too large
Cbc0038I Mini branch and bound did not improve solution (12.05 seconds)
Cbc0038I After 12.05 seconds - Feasibility pump exiting - took 6.96 seconds
Cbc0031I 23 added rows had average density of 50.434783
Cbc0013I At root node, 23 cuts changed objective from 46965.144 to 47333.957 in 11 passes
Cbc0014I Cut generator 0 (Probing) - 8 row cuts average 3.0 elements, 0 column cuts (0 active)  in 0.113 seconds - new frequency is 1
Cbc0014I Cut generator 1 (Gomory) - 53 row cuts average 222.1 elements, 0 column cuts (0 active)  in 0.853 seconds - new frequency is 1
Cbc0014I Cut generator 2 (Knapsack) - 5 row cuts average 8.6 elements, 0 column cuts (0 active)  in 0.021 seconds - new frequency is 1
Cbc0014I Cut generator 3 (Clique) - 0 row cuts average 0.0 elements, 0 column cuts (0 active)  in 0.028 seconds - new frequency is -100
Cbc0014I Cut generator 4 (MixedIntegerRounding2) - 0 row cuts average 0.0 elements, 0 column cuts (0 active)  in 0.025 seconds - new frequency is -100
Cbc0014I Cut generator 5 (FlowCover) - 0 row cuts average 0.0 elements, 0 column cuts (0 active)  in 0.018 seconds - new frequency is -100
Cbc0014I Cut generator 6 (TwoMirCuts) - 55 row cuts average 5.2 elements, 0 column cuts (0 active)  in 0.346 seconds - new frequency is 1
Cbc0014I Cut generator 7 (ZeroHalf) - 9 row cuts average 5.2 elements, 0 column cuts (0 active)  in 0.766 seconds - new frequency is 1
Cbc0010I After 0 nodes, 1 on tree, 1e+50 best solution, best possible 47334 (16.65 seconds)
Cbc0010I After 100 nodes, 10 on tree, 1e+50 best solution, best possible 47524.767 (122.87 seconds)
Cbc0010I After 200 nodes, 15 on tree, 1e+50 best solution, best possible 47524.767 (230.58 seconds)
Cbc0010I After 300 nodes, 27 on tree, 1e+50 best solution, best possible 47524.767 (340.09 seconds)
Cbc0010I After 400 nodes, 77 on tree, 1e+50 best solution, best possible 47524.767 (415.89 seconds)
Cbc0010I After 500 nodes, 127 on tree, 1e+50 best solution, best possible 47524.767 (496.72 seconds)
Cbc0010I After 600 nodes, 178 on tree, 1e+50 best solution, best possible 47524.767 (574.74 seconds)
Cbc0010I After 700 nodes, 225 on tree, 1e+50 best solution, best possible 47524.767 (658.12 seconds)
Cbc0010I After 800 nodes, 280 on tree, 1e+50 best solution, best possible 47524.767 (732.55 seconds)
Cbc0010I After 900 nodes, 330 on tree, 1e+50 best solution, best possible 47524.767 (816.92 seconds)
Cbc0010I After 1000 nodes, 382 on tree, 1e+50 best solution, best possible 47524.767 (893.72 seconds)
Cbc0010I After 1100 nodes, 387 on tree, 1e+50 best solution, best possible 47662.537 (1002.16 seconds)
Cbc0010I After 1200 nodes, 384 on tree, 1e+50 best solution, best possible 47662.537 (1110.78 seconds)
Cbc0010I After 1300 nodes, 386 on tree, 1e+50 best solution, best possible 47662.537 (1239.72 seconds)
Cbc0010I After 1400 nodes, 387 on tree, 1e+50 best solution, best possible 47662.537 (1363.62 seconds)
Cbc0010I After 1500 nodes, 393 on tree, 1e+50 best solution, best possible 47662.537 (1470.97 seconds)
Cbc0010I After 1600 nodes, 386 on tree, 1e+50 best solution, best possible 47662.537 (1576.74 seconds)
Cbc0010I After 1700 nodes, 388 on tree, 1e+50 best solution, best possible 47662.537 (1685.59 seconds)
Cbc0010I After 1800 nodes, 389 on tree, 1e+50 best solution, best possible 47662.537 (1787.84 seconds)
Cbc0020I Exiting on maximum time
Cbc0005I Partial search - best objective 1e+50 (best possible 47662.537), took 2584389 iterations and 1811 nodes (1800.02 seconds)
Cbc0032I Strong branching done 15172 times (1412089 iterations), fathomed 34 nodes and fixed 117 variables
Cbc0035I Maximum depth 470, 0 variables fixed on reduced cost
Cuts at root node changed objective from 46965.1 to 47334
Probing was tried 365 times and created 275 cuts of which 0 were active after adding rounds of cuts (0.750 seconds)
Gomory was tried 364 times and created 248 cuts of which 0 were active after adding rounds of cuts (5.243 seconds)
Knapsack was tried 364 times and created 1348 cuts of which 0 were active after adding rounds of cuts (0.660 seconds)
Clique was tried 11 times and created 0 cuts of which 0 were active after adding rounds of cuts (0.028 seconds)
MixedIntegerRounding2 was tried 11 times and created 0 cuts of which 0 were active after adding rounds of cuts (0.025 seconds)
FlowCover was tried 11 times and created 0 cuts of which 0 were active after adding rounds of cuts (0.018 seconds)
TwoMirCuts was tried 364 times and created 6704 cuts of which 0 were active after adding rounds of cuts (1.956 seconds)
ZeroHalf was tried 364 times and created 185 cuts of which 0 were active after adding rounds of cuts (25.284 seconds)

Result - Stopped on time limit

No feasible solution found
Lower bound:                    47662.537
Enumerated nodes:               1811
Total iterations:               2584389
Time (CPU seconds):             1800.03
Time (Wallclock seconds):       1802.62

Total time (CPU seconds):       1800.06   (Wallclock seconds):       1802.66

